24 28
24 28
27 13
28 30
5 45
22 27
28 29
30 32
22 13
11 36
26 32
23 45
29 46
23 12
19 36
21 29
5 4
17 26
22 22
27 50
13 18
27 22
14 24
13 29
28 18
24 3
18 49
5 42
12 22
9 42
23 48
6 11
9 34
8 3
6 28
10 32
14 23
25 37
18 17
30 47
11 45
5 37
24 34
20 47
11 29
12 30
26 8
25 32
24 13
22 42
